unsat
((set-logic NIA)
(declare-fun r!2 () Int)
(declare-fun s!1 () Int)
(declare-fun x!0 () Int)
(proof
(let ((?x983 (* 3 r!2)))
 (let ((?x1433 (* (- 3) s!1)))
 (let ((?x346 (* 6 x!0)))
 (let ((?x431 (* r00 r00 r00)))
 (let ((?x432 (* 12 ?x431)))
 (let ((?x388 (* s00 r00)))
 (let ((?x466 (* (- 6) ?x388)))
 (let ((?x463 (* (- 6) x00)))
 (let ((?x462 (* (- 3) r00)))
 (let ((?x44 (* 3 s00)))
 (let ((?x301 (+ ?x44 ?x462 ?x463 (* 2 (* s!1 r!2)) ?x466 ?x432 ?x346 (* 4 (* s00 r!2)) ?x1433 ?x983 (* (- 12) (* r00 r00 r!2)))))
 (let (($x1375 (>= ?x301 0)))
 (let (($x643 (= ?x301 0)))
 (let ((?x1264 (* (- 3) r!2)))
 (let ((?x1262 (* 7 s!1)))
 (let ((?x997 (* r!2 r!2)))
 (let ((?x1267 (* (- 12) ?x997)))
 (let ((?x1265 (* (- 6) x!0)))
 (let ((?x445 (* (- 12) ?x431)))
 (let ((?x389 (* 6 ?x388)))
 (let ((?x261 (* r00 r00)))
 (let ((?x1390 (* 12 ?x261)))
 (let ((?x59 (* 6 x00)))
 (let ((?x48 (* 3 r00)))
 (let ((?x1528 (* (- 7) s00)))
 (let ((?x933 (+ ?x1528 ?x48 ?x59 ?x1390 (* (- 2) (* s!1 r!2)) ?x389 ?x445 ?x1265 (* (- 4) (* s00 r!2)) ?x1267 ?x1262 ?x1264 (* 12 (* r00 r00 r!2)))))
 (let ((?x1263 (+ 1 r!2)))
 (let ((?x762 (* ?x1263 ?x1263 ?x1263 (+ 3 s!1 (* 6 r!2)) ?x933)))
 (let (($x973 (= ?x762 0)))
 (let (($x802 (not $x973)))
 (let ((?x1308 (* x00 x00)))
 (let ((?x1205 (* 108 ?x1308)))
 (let ((?x955 (* (- 9) s!1)))
 (let ((?x1146 (* s00 s00 s00)))
 (let ((?x733 (* 16 ?x1146)))
 (let ((?x844 (* r00 r00 r00 x00)))
 (let ((?x534 (* (- 432) ?x844)))
 (let ((?x821 (* r00 r00 s!1)))
 (let ((?x499 (* 36 ?x821)))
 (let ((?x767 (* s00 x00)))
 (let ((?x1365 (* (- 108) ?x767)))
 (let ((?x609 (* s00 r00 r00)))
 (let ((?x241 (* (- 36) ?x609)))
 (let ((?x553 (* s00 s00)))
 (let ((?x906 (* 51 ?x553)))
 (let ((?x484 (* r00 x00)))
 (let ((?x342 (* 108 ?x484)))
 (let ((?x137 (* 9 s00)))
 (let ((?x629 (+ ?x137 (* (- 66) (* s00 s!1)) (* (- 216) (* s00 r00 x!0)) (* (- 54) ?x388) (* (- 108) (* x!0 s!1)) (* 216 (* s00 r00 x00)) ?x342 ?x906 (* (- 4) (* s!1 s!1 s!1)) (* (- 108) (* r00 x!0)) ?x241 (* 432 (* r00 r00 r00 x!0)) (* 108 (* x!0 x!0)) (* (- 108) (* s00 s00 r00)) (* 108 (* s00 x!0)) (* (- 36) (* s00 s00 r00 r00)) (* (- 216) (* x00 x!0)) ?x1365 ?x499 ?x534 (* 108 (* x00 s!1)) (* 54 (* r00 s!1)) (* 216 (* s00 r00 r00 r00)) (* (- 216) (* r00 r00 r00 s!1)) (* 15 (* s!1 s!1)) ?x733 ?x955 ?x1205 (* (- 12) (* s00 s!1 s!1)) (* 36 (* r00 r00 s!1 s!1)) (* 108 (* s00 r00 s!1)))))
 (let ((?x839 (* r00 r00 x00)))
 (let ((?x639 (* 36 ?x839)))
 (let ((?x1174 (* (- 6) ?x767)))
 (let ((?x796 (* 15 ?x553)))
 (let ((?x897 (* 54 ?x484)))
 (let ((?x1181 (+ ?x137 (* (- 12) (* s00 s!1)) (* 24 (* s!1 r!2)) (* (- 36) (* r00 x!0 r!2)) (* (- 24) ?x388) (* (- 2) (* s!1 s!1 r!2)) (* (- 6) (* x!0 s!1)) (* (- 4) (* r00 s!1 s!1)) ?x897 ?x796 (* 54 (* x00 r!2)) (* (- 54) (* r00 x!0)) ?x241 (* 2 (* s00 s00 r00)) (* 6 (* s00 x!0)) ?x1174 ?x499 (* 4 (* s00 s00 r!2)) ?x639 (* (- 2) (* s00 s!1 r!2)) (* 6 (* x00 s!1)) (* (- 24) (* s00 r!2)) (* 24 (* r00 s!1)) (* (- 36) (* r00 r00 x!0)) (* 36 (* r00 x00 r!2)) (* (- 54) (* x!0 r!2)) (* (- 3) (* s!1 s!1)) ?x955 (* 2 (* s00 r00 s!1)))))
 (let ((?x1428 (* 4 ?x553)))
 (let ((?x1526 (* 18 ?x484)))
 (let ((?x970 (+ ?x44 (* (- 2) (* s00 s!1)) (* 9 (* s!1 r!2)) (* (- 9) ?x388) ?x1526 (* 6 (* s00 r00 r!2)) ?x1428 (* 18 (* x00 r!2)) (* (- 18) (* r00 x!0)) (* (- 6) ?x609) (* 6 ?x821) (* (- 9) (* s00 r!2)) (* 9 (* r00 s!1)) (* (- 6) (* r00 s!1 r!2)) (* (- 18) (* x!0 r!2)) (* (- 2) (* s!1 s!1)) ?x1433)))
 (let ((?x956 (* (- 3) ?x261)))
 (let ((?x1271 (+ s00 ?x956 (* 3 ?x997) (* (- 1) s!1))))
 (let (($x1143 (= ?x1271 0)))
 (let (($x986 (and $x1143 $x643 (= ?x970 0) (= ?x1181 0) (= ?x629 0) $x802)))
 (let ((?x1591 (+ ?x1264 ?x1262 ?x1265 ?x1528 ?x48 ?x59 ?x1267 ?x1390 (* (- 2) (* r!2 s!1)) (* 12 (* r!2 r00 r00)) (* (- 4) (* r!2 s00)) ?x389 ?x445)))
 (let (($x846 (not (= (* ?x1263 ?x1263 ?x1263 (+ 3 (* 6 r!2) s!1) ?x1591) 0))))
 (let ((?x1338 (* (- 108) ?x1308)))
 (let ((?x1337 (* (- 16) ?x1146)))
 (let ((?x1018 (* s00 r00 r00 r00)))
 (let ((?x1333 (* (- 216) ?x1018)))
 (let ((?x845 (* 432 ?x844)))
 (let ((?x1091 (* 108 ?x767)))
 (let ((?x693 (* s00 s00 r00 r00)))
 (let ((?x694 (* 36 ?x693)))
 (let ((?x630 (* s00 s00 r00)))
 (let ((?x974 (* 108 ?x630)))
 (let ((?x962 (* 36 ?x609)))
 (let ((?x1327 (* (- 51) ?x553)))
 (let ((?x269 (* s!1 r00 r00)))
 (let ((?x244 (* (- 36) ?x269)))
 (let ((?x1324 (* (- 108) ?x484)))
 (let ((?x475 (* s00 r00 x00)))
 (let ((?x1323 (* (- 216) ?x475)))
 (let ((?x482 (* 54 ?x388)))
 (let ((?x949 (* (- 9) s00)))
 (let ((?x917 (* 9 s!1)))
 (let ((?x1261 (+ ?x917 ?x949 ?x482 ?x1323 ?x1324 (* (- 15) (* s!1 s!1)) ?x244 ?x1327 (* (- 108) (* x!0 s00)) (* 108 (* x!0 r00)) (* 216 (* s!1 r00 r00 r00)) ?x962 ?x974 (* 66 (* s!1 s00)) (* (- 54) (* s!1 r00)) (* (- 108) (* s!1 x00)) ?x694 (* (- 108) (* s!1 s00 r00)) (* 4 (* s!1 s!1 s!1)) ?x1091 (* 108 (* s!1 x!0)) (* (- 108) (* x!0 x!0)) ?x845 (* 12 (* s!1 s!1 s00)) ?x1333 (* (- 432) (* x!0 r00 r00 r00)) (* 216 (* x!0 s00 r00)) (* (- 36) (* s!1 s!1 r00 r00)) ?x1337 (* 216 (* x!0 x00)) ?x1338)))
 (let ((?x852 (* (- 36) ?x839)))
 (let ((?x768 (* 6 ?x767)))
 (let ((?x658 (* (- 2) ?x630)))
 (let ((?x878 (* (- 15) ?x553)))
 (let ((?x513 (* (- 54) ?x484)))
 (let ((?x526 (* 24 ?x388)))
 (let ((?x791 (+ ?x917 ?x949 (* (- 24) (* r!2 s!1)) (* 24 (* r!2 s00)) ?x526 ?x513 (* 3 (* s!1 s!1)) (* 54 (* r!2 x!0)) (* 36 (* r!2 x!0 r00)) ?x244 ?x878 (* (- 6) (* x!0 s00)) (* 54 (* x!0 r00)) ?x962 (* 4 (* s!1 s!1 r00)) (* (- 54) (* r!2 x00)) ?x658 (* 12 (* s!1 s00)) (* (- 24) (* s!1 r00)) (* (- 6) (* s!1 x00)) (* (- 2) (* s!1 s00 r00)) ?x768 (* 2 (* r!2 s!1 s!1)) (* 6 (* s!1 x!0)) (* (- 4) (* r!2 s00 s00)) ?x852 (* 2 (* r!2 s!1 s00)) (* (- 36) (* r!2 r00 x00)) (* 36 (* x!0 r00 r00)))))
 (let ((?x610 (* 6 ?x609)))
 (let ((?x566 (* (- 4) ?x553)))
 (let ((?x498 (* (- 18) ?x484)))
 (let ((?x503 (* 9 ?x388)))
 (let ((?x340 (* (- 3) s00)))
 (let ((?x680 (+ (* 3 s!1) ?x340 (* (- 9) (* r!2 s!1)) (* 9 (* r!2 s00)) ?x503 ?x498 (* 2 (* s!1 s!1)) (* 18 (* r!2 x!0)) (* 6 (* r!2 s!1 r00)) (* (- 6) ?x269) ?x566 (* 18 (* x!0 r00)) ?x610 (* (- 18) (* r!2 x00)) (* 2 (* s!1 s00)) (* (- 9) (* s!1 r00)) (* (- 6) (* r!2 s00 r00)))))
 (let ((?x758 (+ ?x983 ?x1433 ?x346 ?x44 ?x462 ?x463 (* 2 (* r!2 s!1)) (* (- 12) (* r!2 r00 r00)) (* 4 (* r!2 s00)) ?x466 ?x432)))
 (let (($x1588 (and (= (+ s!1 (* (- 1) s00) (* (- 3) ?x997) (* 3 ?x261)) 0) (= ?x758 0) (= ?x680 0) (= ?x791 0) (= ?x1261 0) $x846)))
 (let (($x1358 (exists ((r Int) (s Int) (x Int) )(! (let ((?x431 (* r00 r00 r00)))
 (let ((?x445 (* (- 12) ?x431)))
 (let ((?x388 (* s00 r00)))
 (let ((?x389 (* 6 ?x388)))
 (let ((?x361 (* r s00)))
 (let ((?x375 (* (- 4) ?x361)))
 (let ((?x311 (* r r00 r00)))
 (let ((?x312 (* 12 ?x311)))
 (let ((?x305 (* r s)))
 (let ((?x306 (* (- 2) ?x305)))
 (let ((?x261 (* r00 r00)))
 (let ((?x1390 (* 12 ?x261)))
 (let ((?x59 (* 6 x00)))
 (let ((?x48 (* 3 r00)))
 (let ((?x1528 (* (- 7) s00)))
 (let ((?x410 (* (- 6) x)))
 (let ((?x1590 (* 7 s)))
 (let ((?x953 (* (- 3) r)))
 (let ((?x1198 (+ ?x953 ?x1590 ?x410 ?x1528 ?x48 ?x59 (* (- 12) (* r r)) ?x1390 ?x306 ?x312 ?x375 ?x389 ?x445)))
 (let ((?x213 (* 6 r)))
 (let ((?x1348 (+ 3 ?x213 s)))
 (let ((?x1345 (+ 1 r)))
 (let ((?x1308 (* x00 x00)))
 (let ((?x1338 (* (- 108) ?x1308)))
 (let ((?x1146 (* s00 s00 s00)))
 (let ((?x1337 (* (- 16) ?x1146)))
 (let ((?x1018 (* s00 r00 r00 r00)))
 (let ((?x1333 (* (- 216) ?x1018)))
 (let ((?x844 (* r00 r00 r00 x00)))
 (let ((?x845 (* 432 ?x844)))
 (let ((?x767 (* s00 x00)))
 (let ((?x1091 (* 108 ?x767)))
 (let ((?x693 (* s00 s00 r00 r00)))
 (let ((?x694 (* 36 ?x693)))
 (let ((?x630 (* s00 s00 r00)))
 (let ((?x974 (* 108 ?x630)))
 (let ((?x609 (* s00 r00 r00)))
 (let ((?x962 (* 36 ?x609)))
 (let ((?x553 (* s00 s00)))
 (let ((?x1327 (* (- 51) ?x553)))
 (let ((?x527 (* s r00 r00)))
 (let ((?x826 (* (- 36) ?x527)))
 (let ((?x484 (* r00 x00)))
 (let ((?x1324 (* (- 108) ?x484)))
 (let ((?x475 (* s00 r00 x00)))
 (let ((?x1323 (* (- 216) ?x475)))
 (let ((?x482 (* 54 ?x388)))
 (let ((?x949 (* (- 9) s00)))
 (let ((?x143 (* 9 s)))
 (let ((?x1339 (+ ?x143 ?x949 ?x482 ?x1323 ?x1324 (* (- 15) (* s s)) ?x826 ?x1327 (* (- 108) (* x s00)) (* 108 (* x r00)) (* 216 (* s r00 r00 r00)) ?x962 ?x974 (* 66 (* s s00)) (* (- 54) (* s r00)) (* (- 108) (* s x00)) ?x694 (* (- 108) (* s s00 r00)) (* 4 (* s s s)) ?x1091 (* 108 (* s x)) (* (- 108) (* x x)) ?x845 (* 12 (* s s s00)) ?x1333 (* (- 432) (* x r00 r00 r00)) (* 216 (* x s00 r00)) (* (- 36) (* s s r00 r00)) ?x1337 (* 216 (* x x00)) ?x1338)))
 (let (($x1340 (= ?x1339 0)))
 (let ((?x839 (* r00 r00 x00)))
 (let ((?x852 (* (- 36) ?x839)))
 (let ((?x768 (* 6 ?x767)))
 (let ((?x658 (* (- 2) ?x630)))
 (let ((?x878 (* (- 15) ?x553)))
 (let ((?x507 (* s s)))
 (let ((?x531 (* 3 ?x507)))
 (let ((?x513 (* (- 54) ?x484)))
 (let ((?x526 (* 24 ?x388)))
 (let ((?x1041 (+ ?x143 ?x949 (* (- 24) ?x305) (* 24 ?x361) ?x526 ?x513 ?x531 (* 54 (* r x)) (* 36 (* r x r00)) ?x826 ?x878 (* (- 6) (* x s00)) (* 54 (* x r00)) ?x962 (* 4 (* s s r00)) (* (- 54) (* r x00)) ?x658 (* 12 (* s s00)) (* (- 24) (* s r00)) (* (- 6) (* s x00)) (* (- 2) (* s s00 r00)) ?x768 (* 2 (* r s s)) (* 6 (* s x)) (* (- 4) (* r s00 s00)) ?x852 (* 2 (* r s s00)) (* (- 36) (* r r00 x00)) (* 36 (* x r00 r00)))))
 (let (($x1046 (= ?x1041 0)))
 (let ((?x610 (* 6 ?x609)))
 (let ((?x566 (* (- 4) ?x553)))
 (let ((?x508 (* 2 ?x507)))
 (let ((?x498 (* (- 18) ?x484)))
 (let ((?x503 (* 9 ?x388)))
 (let ((?x340 (* (- 3) s00)))
 (let ((?x47 (* 3 s)))
 (let ((?x707 (+ ?x47 ?x340 (* (- 9) ?x305) (* 9 ?x361) ?x503 ?x498 ?x508 (* 18 (* r x)) (* 6 (* r s r00)) (* (- 6) ?x527) ?x566 (* 18 (* x r00)) ?x610 (* (- 18) (* r x00)) (* 2 (* s s00)) (* (- 9) (* s r00)) (* (- 6) (* r s00 r00)))))
 (let (($x714 (= ?x707 0)))
 (let ((?x432 (* 12 ?x431)))
 (let ((?x466 (* (- 6) ?x388)))
 (let ((?x463 (* (- 6) x00)))
 (let ((?x462 (* (- 3) r00)))
 (let ((?x44 (* 3 s00)))
 (let ((?x56 (* 6 x)))
 (let ((?x461 (* (- 3) s)))
 (let ((?x43 (* 3 r)))
 (let ((?x467 (+ ?x43 ?x461 ?x56 ?x44 ?x462 ?x463 (* 2 ?x305) (* (- 12) ?x311) (* 4 ?x361) ?x466 ?x432)))
 (let (($x468 (= ?x467 0)))
 (let (($x294 (= (+ s (* (- 1) s00) (* (- 3) (* r r)) (* 3 ?x261)) 0)))
 (and $x294 $x468 $x714 $x1046 $x1340 (not (= (* ?x1345 ?x1345 ?x1345 ?x1348 ?x1198) 0))))))))))))))))))))))))))))))))))))))))))))))))))))))))))))))))))))))))))))))))))))) :qid k!35))
 ))
 (let (($x1030 (exists ((r Int) (s Int) (x Int) )(! (let ((?x431 (* r00 r00 r00)))
 (let ((?x445 (* (- 12) ?x431)))
 (let ((?x59 (* 6 x00)))
 (let ((?x410 (* (- 6) x)))
 (let ((?x1304 (* r00 s00)))
 (let ((?x1305 (* 6 ?x1304)))
 (let ((?x48 (* 3 r00)))
 (let ((?x143 (* 9 s)))
 (let ((?x340 (* (- 3) s00)))
 (let ((?x1040 (+ 6 (* (- 2) (* (+ 1 r) (+ 3 s (* 6 r)))) (* 12 (* r00 r00 (+ 1 r))) (* 15 r) ?x340 ?x143 ?x48 (* (- 4) (* s00 (+ 1 r))) ?x1305 ?x410 ?x59 ?x445)))
 (let ((?x213 (* 6 r)))
 (let ((?x605 (+ 3 s ?x213)))
 (let ((?x1345 (+ 1 r)))
 (let (($x1157 (not (= (* ?x1345 ?x1345 ?x1345 ?x605 ?x1040) 0))))
 (let ((?x1308 (* x00 x00)))
 (let ((?x1205 (* 108 ?x1308)))
 (let ((?x1118 (* (- 9) s)))
 (let ((?x1468 (* r00 r00 s00)))
 (let ((?x1078 (* (- 36) ?x1468)))
 (let ((?x137 (* 9 s00)))
 (let ((?x553 (* s00 s00)))
 (let ((?x906 (* 51 ?x553)))
 (let ((?x501 (* r00 r00 s)))
 (let ((?x1137 (* 36 ?x501)))
 (let ((?x1146 (* s00 s00 s00)))
 (let ((?x733 (* 16 ?x1146)))
 (let ((?x767 (* s00 x00)))
 (let ((?x1365 (* (- 108) ?x767)))
 (let ((?x844 (* r00 r00 r00 x00)))
 (let ((?x534 (* (- 432) ?x844)))
 (let ((?x484 (* r00 x00)))
 (let ((?x342 (* 108 ?x484)))
 (let ((?x1223 (+ (* 216 (* r00 s00 x00)) ?x342 (* (- 54) ?x1304) (* 15 (* s s)) (* (- 216) (* r00 r00 r00 s)) (* (- 36) (* r00 r00 s00 s00)) (* (- 4) (* s s s)) (* 108 (* x x)) ?x534 (* (- 12) (* s00 s s)) (* 108 (* s00 x)) (* (- 108) (* r00 s00 s00)) (* 216 (* r00 r00 r00 s00)) (* 108 (* x00 s)) (* 432 (* r00 r00 r00 x)) (* (- 66) (* s00 s)) (* 108 (* r00 s00 s)) ?x1365 (* (- 216) (* r00 s00 x)) (* 36 (* r00 r00 s s)) ?x733 (* (- 108) (* x s)) ?x1137 ?x906 (* (- 108) (* r00 x)) ?x137 ?x1078 ?x1118 (* 54 (* r00 s)) (* (- 216) (* x00 x)) ?x1205)))
 (let (($x1228 (= ?x1223 0)))
 (let ((?x796 (* 15 ?x553)))
 (let ((?x839 (* r00 r00 x00)))
 (let ((?x639 (* 36 ?x839)))
 (let ((?x1174 (* (- 6) ?x767)))
 (let ((?x897 (* 54 ?x484)))
 (let ((?x780 (+ (* 24 (* s r)) ?x897 (* (- 36) (* r00 x r)) (* (- 24) ?x1304) (* (- 3) (* s s)) (* (- 54) (* x r)) (* 6 (* s00 x)) (* (- 4) (* r00 s s)) (* 2 (* r00 s00 s00)) (* 6 (* x00 s)) (* (- 12) (* s00 s)) (* 2 (* r00 s00 s)) ?x1174 (* (- 2) (* s s r)) (* (- 6) (* x s)) (* 4 (* s00 s00 r)) ?x1137 ?x639 ?x796 (* (- 2) (* s00 s r)) (* 36 (* r00 x00 r)) (* (- 54) (* r00 x)) ?x137 ?x1078 (* 54 (* x00 r)) ?x1118 (* (- 24) (* s00 r)) (* 24 (* r00 s)) (* (- 36) (* r00 r00 x)))))
 (let ((?x461 (* (- 3) s)))
 (let ((?x44 (* 3 s00)))
 (let ((?x1428 (* 4 ?x553)))
 (let ((?x1526 (* 18 ?x484)))
 (let ((?x889 (+ (* 9 (* s r)) ?x1526 (* (- 9) ?x1304) (* (- 2) (* s s)) (* (- 18) (* x r)) (* (- 6) (* r00 s r)) (* 6 ?x501) ?x1428 (* (- 18) (* r00 x)) ?x44 (* (- 6) ?x1468) (* 18 (* x00 r)) ?x461 (* (- 9) (* s00 r)) (* (- 2) (* s00 s)) (* 9 (* r00 s)) (* 6 (* r00 s00 r)))))
 (let ((?x432 (* 12 ?x431)))
 (let ((?x463 (* (- 6) x00)))
 (let ((?x56 (* 6 x)))
 (let ((?x462 (* (- 3) r00)))
 (let ((?x43 (* 3 r)))
 (let ((?x1499 (+ (* 2 (* s r)) (* (- 12) (* r00 r00 r)) ?x43 ?x44 ?x461 ?x462 (* 4 (* s00 r)) (* (- 6) ?x1304) ?x56 ?x463 ?x432)))
 (let ((?x261 (* r00 r00)))
 (let ((?x956 (* (- 3) ?x261)))
 (let (($x737 (= (+ s00 (* (- 1) s) (* 3 (* r r)) ?x956) 0)))
 (and $x737 (= ?x1499 0) (= ?x889 0) (= ?x780 0) $x1228 $x1157))))))))))))))))))))))))))))))))))))))))))))))))))))))) :qid k!35))
 ))
 (let ((?x696 (lambda ((r Int) (s Int) (x Int) )(let ((?x431 (* r00 r00 r00)))
 (let ((?x445 (* (- 12) ?x431)))
 (let ((?x388 (* s00 r00)))
 (let ((?x389 (* 6 ?x388)))
 (let ((?x361 (* r s00)))
 (let ((?x375 (* (- 4) ?x361)))
 (let ((?x311 (* r r00 r00)))
 (let ((?x312 (* 12 ?x311)))
 (let ((?x305 (* r s)))
 (let ((?x306 (* (- 2) ?x305)))
 (let ((?x261 (* r00 r00)))
 (let ((?x1390 (* 12 ?x261)))
 (let ((?x59 (* 6 x00)))
 (let ((?x48 (* 3 r00)))
 (let ((?x1528 (* (- 7) s00)))
 (let ((?x410 (* (- 6) x)))
 (let ((?x1590 (* 7 s)))
 (let ((?x953 (* (- 3) r)))
 (let ((?x1198 (+ ?x953 ?x1590 ?x410 ?x1528 ?x48 ?x59 (* (- 12) (* r r)) ?x1390 ?x306 ?x312 ?x375 ?x389 ?x445)))
 (let ((?x213 (* 6 r)))
 (let ((?x1348 (+ 3 ?x213 s)))
 (let ((?x1345 (+ 1 r)))
 (let ((?x1308 (* x00 x00)))
 (let ((?x1338 (* (- 108) ?x1308)))
 (let ((?x1146 (* s00 s00 s00)))
 (let ((?x1337 (* (- 16) ?x1146)))
 (let ((?x1018 (* s00 r00 r00 r00)))
 (let ((?x1333 (* (- 216) ?x1018)))
 (let ((?x844 (* r00 r00 r00 x00)))
 (let ((?x845 (* 432 ?x844)))
 (let ((?x767 (* s00 x00)))
 (let ((?x1091 (* 108 ?x767)))
 (let ((?x693 (* s00 s00 r00 r00)))
 (let ((?x694 (* 36 ?x693)))
 (let ((?x630 (* s00 s00 r00)))
 (let ((?x974 (* 108 ?x630)))
 (let ((?x609 (* s00 r00 r00)))
 (let ((?x962 (* 36 ?x609)))
 (let ((?x553 (* s00 s00)))
 (let ((?x1327 (* (- 51) ?x553)))
 (let ((?x527 (* s r00 r00)))
 (let ((?x826 (* (- 36) ?x527)))
 (let ((?x484 (* r00 x00)))
 (let ((?x1324 (* (- 108) ?x484)))
 (let ((?x475 (* s00 r00 x00)))
 (let ((?x1323 (* (- 216) ?x475)))
 (let ((?x482 (* 54 ?x388)))
 (let ((?x949 (* (- 9) s00)))
 (let ((?x143 (* 9 s)))
 (let ((?x1339 (+ ?x143 ?x949 ?x482 ?x1323 ?x1324 (* (- 15) (* s s)) ?x826 ?x1327 (* (- 108) (* x s00)) (* 108 (* x r00)) (* 216 (* s r00 r00 r00)) ?x962 ?x974 (* 66 (* s s00)) (* (- 54) (* s r00)) (* (- 108) (* s x00)) ?x694 (* (- 108) (* s s00 r00)) (* 4 (* s s s)) ?x1091 (* 108 (* s x)) (* (- 108) (* x x)) ?x845 (* 12 (* s s s00)) ?x1333 (* (- 432) (* x r00 r00 r00)) (* 216 (* x s00 r00)) (* (- 36) (* s s r00 r00)) ?x1337 (* 216 (* x x00)) ?x1338)))
 (let (($x1340 (= ?x1339 0)))
 (let ((?x839 (* r00 r00 x00)))
 (let ((?x852 (* (- 36) ?x839)))
 (let ((?x768 (* 6 ?x767)))
 (let ((?x658 (* (- 2) ?x630)))
 (let ((?x878 (* (- 15) ?x553)))
 (let ((?x507 (* s s)))
 (let ((?x531 (* 3 ?x507)))
 (let ((?x513 (* (- 54) ?x484)))
 (let ((?x526 (* 24 ?x388)))
 (let ((?x1041 (+ ?x143 ?x949 (* (- 24) ?x305) (* 24 ?x361) ?x526 ?x513 ?x531 (* 54 (* r x)) (* 36 (* r x r00)) ?x826 ?x878 (* (- 6) (* x s00)) (* 54 (* x r00)) ?x962 (* 4 (* s s r00)) (* (- 54) (* r x00)) ?x658 (* 12 (* s s00)) (* (- 24) (* s r00)) (* (- 6) (* s x00)) (* (- 2) (* s s00 r00)) ?x768 (* 2 (* r s s)) (* 6 (* s x)) (* (- 4) (* r s00 s00)) ?x852 (* 2 (* r s s00)) (* (- 36) (* r r00 x00)) (* 36 (* x r00 r00)))))
 (let (($x1046 (= ?x1041 0)))
 (let ((?x610 (* 6 ?x609)))
 (let ((?x566 (* (- 4) ?x553)))
 (let ((?x508 (* 2 ?x507)))
 (let ((?x498 (* (- 18) ?x484)))
 (let ((?x503 (* 9 ?x388)))
 (let ((?x340 (* (- 3) s00)))
 (let ((?x47 (* 3 s)))
 (let ((?x707 (+ ?x47 ?x340 (* (- 9) ?x305) (* 9 ?x361) ?x503 ?x498 ?x508 (* 18 (* r x)) (* 6 (* r s r00)) (* (- 6) ?x527) ?x566 (* 18 (* x r00)) ?x610 (* (- 18) (* r x00)) (* 2 (* s s00)) (* (- 9) (* s r00)) (* (- 6) (* r s00 r00)))))
 (let (($x714 (= ?x707 0)))
 (let ((?x432 (* 12 ?x431)))
 (let ((?x466 (* (- 6) ?x388)))
 (let ((?x463 (* (- 6) x00)))
 (let ((?x462 (* (- 3) r00)))
 (let ((?x44 (* 3 s00)))
 (let ((?x56 (* 6 x)))
 (let ((?x461 (* (- 3) s)))
 (let ((?x43 (* 3 r)))
 (let ((?x467 (+ ?x43 ?x461 ?x56 ?x44 ?x462 ?x463 (* 2 ?x305) (* (- 12) ?x311) (* 4 ?x361) ?x466 ?x432)))
 (let (($x468 (= ?x467 0)))
 (let (($x294 (= (+ s (* (- 1) s00) (* (- 3) (* r r)) (* 3 ?x261)) 0)))
 (let (($x1298 (and $x294 $x468 $x714 $x1046 $x1340 (not (= (* ?x1345 ?x1345 ?x1345 ?x1348 ?x1198) 0)))))
 (let ((?x1304 (* r00 s00)))
 (let ((?x1305 (* 6 ?x1304)))
 (let ((?x1040 (+ 6 (* (- 2) (* ?x1345 (+ 3 s ?x213))) (* 12 (* r00 r00 ?x1345)) (* 15 r) ?x340 ?x143 ?x48 (* (- 4) (* s00 ?x1345)) ?x1305 ?x410 ?x59 ?x445)))
 (let ((?x605 (+ 3 s ?x213)))
 (let (($x1157 (not (= (* ?x1345 ?x1345 ?x1345 ?x605 ?x1040) 0))))
 (let ((?x1205 (* 108 ?x1308)))
 (let ((?x1118 (* (- 9) s)))
 (let ((?x1468 (* r00 r00 s00)))
 (let ((?x1078 (* (- 36) ?x1468)))
 (let ((?x137 (* 9 s00)))
 (let ((?x906 (* 51 ?x553)))
 (let ((?x501 (* r00 r00 s)))
 (let ((?x1137 (* 36 ?x501)))
 (let ((?x733 (* 16 ?x1146)))
 (let ((?x1365 (* (- 108) ?x767)))
 (let ((?x534 (* (- 432) ?x844)))
 (let ((?x342 (* 108 ?x484)))
 (let ((?x1223 (+ (* 216 (* r00 s00 x00)) ?x342 (* (- 54) ?x1304) (* 15 ?x507) (* (- 216) (* r00 r00 r00 s)) (* (- 36) (* r00 r00 s00 s00)) (* (- 4) (* s s s)) (* 108 (* x x)) ?x534 (* (- 12) (* s00 s s)) (* 108 (* s00 x)) (* (- 108) (* r00 s00 s00)) (* 216 (* r00 r00 r00 s00)) (* 108 (* x00 s)) (* 432 (* r00 r00 r00 x)) (* (- 66) (* s00 s)) (* 108 (* r00 s00 s)) ?x1365 (* (- 216) (* r00 s00 x)) (* 36 (* r00 r00 s s)) ?x733 (* (- 108) (* x s)) ?x1137 ?x906 (* (- 108) (* r00 x)) ?x137 ?x1078 ?x1118 (* 54 (* r00 s)) (* (- 216) (* x00 x)) ?x1205)))
 (let (($x1228 (= ?x1223 0)))
 (let ((?x796 (* 15 ?x553)))
 (let ((?x639 (* 36 ?x839)))
 (let ((?x1174 (* (- 6) ?x767)))
 (let ((?x897 (* 54 ?x484)))
 (let ((?x780 (+ (* 24 (* s r)) ?x897 (* (- 36) (* r00 x r)) (* (- 24) ?x1304) (* (- 3) ?x507) (* (- 54) (* x r)) (* 6 (* s00 x)) (* (- 4) (* r00 s s)) (* 2 (* r00 s00 s00)) (* 6 (* x00 s)) (* (- 12) (* s00 s)) (* 2 (* r00 s00 s)) ?x1174 (* (- 2) (* s s r)) (* (- 6) (* x s)) (* 4 (* s00 s00 r)) ?x1137 ?x639 ?x796 (* (- 2) (* s00 s r)) (* 36 (* r00 x00 r)) (* (- 54) (* r00 x)) ?x137 ?x1078 (* 54 (* x00 r)) ?x1118 (* (- 24) (* s00 r)) (* 24 (* r00 s)) (* (- 36) (* r00 r00 x)))))
 (let ((?x1428 (* 4 ?x553)))
 (let ((?x1526 (* 18 ?x484)))
 (let ((?x889 (+ (* 9 (* s r)) ?x1526 (* (- 9) ?x1304) (* (- 2) ?x507) (* (- 18) (* x r)) (* (- 6) (* r00 s r)) (* 6 ?x501) ?x1428 (* (- 18) (* r00 x)) ?x44 (* (- 6) ?x1468) (* 18 (* x00 r)) ?x461 (* (- 9) (* s00 r)) (* (- 2) (* s00 s)) (* 9 (* r00 s)) (* 6 (* r00 s00 r)))))
 (let ((?x1499 (+ (* 2 (* s r)) (* (- 12) (* r00 r00 r)) ?x43 ?x44 ?x461 ?x462 (* 4 (* s00 r)) (* (- 6) ?x1304) ?x56 ?x463 ?x432)))
 (let (($x737 (= (+ s00 (* (- 1) s) (* 3 (* r r)) (* (- 3) ?x261)) 0)))
 (let (($x1564 (and $x737 (= ?x1499 0) (= ?x889 0) (= ?x780 0) $x1228 $x1157)))
 (rewrite (= $x1564 $x1298))))))))))))))))))))))))))))))))))))))))))))))))))))))))))))))))))))))))))))))))))))))))))))))))))))))))))))))))))))
 ))
 (let (($x1159 (exists ((r Int) (s Int) (x Int) )(! (let ((?x431 (* r00 r00 r00)))
 (let ((?x445 (* (- 12) ?x431)))
 (let ((?x59 (* 6 x00)))
 (let ((?x410 (* (- 6) x)))
 (let ((?x1304 (* r00 s00)))
 (let ((?x1305 (* 6 ?x1304)))
 (let ((?x48 (* 3 r00)))
 (let ((?x143 (* 9 s)))
 (let ((?x340 (* (- 3) s00)))
 (let ((?x1040 (+ 6 (* (- 2) (* (+ 1 r) (+ 3 s (* 6 r)))) (* 12 (* r00 r00 (+ 1 r))) (* 15 r) ?x340 ?x143 ?x48 (* (- 4) (* s00 (+ 1 r))) ?x1305 ?x410 ?x59 ?x445)))
 (let ((?x213 (* 6 r)))
 (let ((?x605 (+ 3 s ?x213)))
 (let ((?x1345 (+ 1 r)))
 (let (($x1157 (not (= (* ?x1345 ?x1345 ?x1345 ?x605 ?x1040) 0))))
 (let ((?x1308 (* x00 x00)))
 (let ((?x1205 (* 108 ?x1308)))
 (let ((?x1118 (* (- 9) s)))
 (let ((?x1468 (* r00 r00 s00)))
 (let ((?x1078 (* (- 36) ?x1468)))
 (let ((?x137 (* 9 s00)))
 (let ((?x553 (* s00 s00)))
 (let ((?x906 (* 51 ?x553)))
 (let ((?x501 (* r00 r00 s)))
 (let ((?x1137 (* 36 ?x501)))
 (let ((?x1146 (* s00 s00 s00)))
 (let ((?x733 (* 16 ?x1146)))
 (let ((?x767 (* s00 x00)))
 (let ((?x1365 (* (- 108) ?x767)))
 (let ((?x844 (* r00 r00 r00 x00)))
 (let ((?x534 (* (- 432) ?x844)))
 (let ((?x484 (* r00 x00)))
 (let ((?x342 (* 108 ?x484)))
 (let ((?x1223 (+ (* 216 (* r00 s00 x00)) ?x342 (* (- 54) ?x1304) (* 15 (* s s)) (* (- 216) (* r00 r00 r00 s)) (* (- 36) (* r00 r00 s00 s00)) (* (- 4) (* s s s)) (* 108 (* x x)) ?x534 (* (- 12) (* s00 s s)) (* 108 (* s00 x)) (* (- 108) (* r00 s00 s00)) (* 216 (* r00 r00 r00 s00)) (* 108 (* x00 s)) (* 432 (* r00 r00 r00 x)) (* (- 66) (* s00 s)) (* 108 (* r00 s00 s)) ?x1365 (* (- 216) (* r00 s00 x)) (* 36 (* r00 r00 s s)) ?x733 (* (- 108) (* x s)) ?x1137 ?x906 (* (- 108) (* r00 x)) ?x137 ?x1078 ?x1118 (* 54 (* r00 s)) (* (- 216) (* x00 x)) ?x1205)))
 (let (($x1228 (= ?x1223 0)))
 (let ((?x949 (* (- 9) s00)))
 (let ((?x878 (* (- 15) ?x553)))
 (let ((?x839 (* r00 r00 x00)))
 (let ((?x852 (* (- 36) ?x839)))
 (let ((?x768 (* 6 ?x767)))
 (let ((?x507 (* s s)))
 (let ((?x531 (* 3 ?x507)))
 (let ((?x513 (* (- 54) ?x484)))
 (let ((?x883 (+ (* (- 24) (* s r)) ?x513 (* 36 (* r00 x r)) (* 24 ?x1304) ?x531 (* 54 (* x r)) (* (- 6) (* s00 x)) (* 4 (* r00 s s)) (* (- 2) (* r00 s00 s00)) (* (- 6) (* x00 s)) (* 12 (* s00 s)) (* (- 2) (* r00 s00 s)) ?x768 (* 2 (* s s r)) (* 6 (* x s)) (* (- 4) (* s00 s00 r)) (* (- 36) ?x501) ?x852 ?x878 (* 2 (* s00 s r)) (* (- 36) (* r00 x00 r)) (* 54 (* r00 x)) ?x949 (* 36 ?x1468) (* (- 54) (* x00 r)) ?x143 (* 24 (* s00 r)) (* (- 24) (* r00 s)) (* 36 (* r00 r00 x)))))
 (let ((?x47 (* 3 s)))
 (let ((?x566 (* (- 4) ?x553)))
 (let ((?x508 (* 2 ?x507)))
 (let ((?x498 (* (- 18) ?x484)))
 (let ((?x1172 (+ (* (- 9) (* s r)) ?x498 (* 9 ?x1304) ?x508 (* 18 (* x r)) (* 6 (* r00 s r)) (* (- 6) ?x501) ?x566 (* 18 (* r00 x)) ?x340 (* 6 ?x1468) (* (- 18) (* x00 r)) ?x47 (* 9 (* s00 r)) (* 2 (* s00 s)) (* (- 9) (* r00 s)) (* (- 6) (* r00 s00 r)))))
 (let ((?x953 (* (- 3) r)))
 (let ((?x1349 (+ (* (- 2) (* s r)) (* 12 (* r00 r00 r)) ?x953 ?x340 ?x47 ?x48 (* (- 4) (* s00 r)) ?x1305 ?x410 ?x59 ?x445)))
 (let ((?x261 (* r00 r00)))
 (let ((?x956 (* (- 3) ?x261)))
 (let (($x737 (= (+ s00 (* (- 1) s) (* 3 (* r r)) ?x956) 0)))
 (and $x737 (= ?x1349 0) (= ?x1172 0) (= ?x883 0) $x1228 $x1157)))))))))))))))))))))))))))))))))))))))))))))))))))))) :qid k!35))
 ))
 (let ((?x1435 (lambda ((r Int) (s Int) (x Int) )(let ((?x431 (* r00 r00 r00)))
 (let ((?x445 (* (- 12) ?x431)))
 (let ((?x59 (* 6 x00)))
 (let ((?x410 (* (- 6) x)))
 (let ((?x1304 (* r00 s00)))
 (let ((?x1305 (* 6 ?x1304)))
 (let ((?x48 (* 3 r00)))
 (let ((?x143 (* 9 s)))
 (let ((?x340 (* (- 3) s00)))
 (let ((?x1040 (+ 6 (* (- 2) (* (+ 1 r) (+ 3 s (* 6 r)))) (* 12 (* r00 r00 (+ 1 r))) (* 15 r) ?x340 ?x143 ?x48 (* (- 4) (* s00 (+ 1 r))) ?x1305 ?x410 ?x59 ?x445)))
 (let ((?x213 (* 6 r)))
 (let ((?x605 (+ 3 s ?x213)))
 (let ((?x1345 (+ 1 r)))
 (let (($x1157 (not (= (* ?x1345 ?x1345 ?x1345 ?x605 ?x1040) 0))))
 (let ((?x1308 (* x00 x00)))
 (let ((?x1205 (* 108 ?x1308)))
 (let ((?x1118 (* (- 9) s)))
 (let ((?x1468 (* r00 r00 s00)))
 (let ((?x1078 (* (- 36) ?x1468)))
 (let ((?x137 (* 9 s00)))
 (let ((?x553 (* s00 s00)))
 (let ((?x906 (* 51 ?x553)))
 (let ((?x501 (* r00 r00 s)))
 (let ((?x1137 (* 36 ?x501)))
 (let ((?x1146 (* s00 s00 s00)))
 (let ((?x733 (* 16 ?x1146)))
 (let ((?x767 (* s00 x00)))
 (let ((?x1365 (* (- 108) ?x767)))
 (let ((?x844 (* r00 r00 r00 x00)))
 (let ((?x534 (* (- 432) ?x844)))
 (let ((?x484 (* r00 x00)))
 (let ((?x342 (* 108 ?x484)))
 (let ((?x1223 (+ (* 216 (* r00 s00 x00)) ?x342 (* (- 54) ?x1304) (* 15 (* s s)) (* (- 216) (* r00 r00 r00 s)) (* (- 36) (* r00 r00 s00 s00)) (* (- 4) (* s s s)) (* 108 (* x x)) ?x534 (* (- 12) (* s00 s s)) (* 108 (* s00 x)) (* (- 108) (* r00 s00 s00)) (* 216 (* r00 r00 r00 s00)) (* 108 (* x00 s)) (* 432 (* r00 r00 r00 x)) (* (- 66) (* s00 s)) (* 108 (* r00 s00 s)) ?x1365 (* (- 216) (* r00 s00 x)) (* 36 (* r00 r00 s s)) ?x733 (* (- 108) (* x s)) ?x1137 ?x906 (* (- 108) (* r00 x)) ?x137 ?x1078 ?x1118 (* 54 (* r00 s)) (* (- 216) (* x00 x)) ?x1205)))
 (let (($x1228 (= ?x1223 0)))
 (let ((?x796 (* 15 ?x553)))
 (let ((?x839 (* r00 r00 x00)))
 (let ((?x639 (* 36 ?x839)))
 (let ((?x1174 (* (- 6) ?x767)))
 (let ((?x897 (* 54 ?x484)))
 (let ((?x780 (+ (* 24 (* s r)) ?x897 (* (- 36) (* r00 x r)) (* (- 24) ?x1304) (* (- 3) (* s s)) (* (- 54) (* x r)) (* 6 (* s00 x)) (* (- 4) (* r00 s s)) (* 2 (* r00 s00 s00)) (* 6 (* x00 s)) (* (- 12) (* s00 s)) (* 2 (* r00 s00 s)) ?x1174 (* (- 2) (* s s r)) (* (- 6) (* x s)) (* 4 (* s00 s00 r)) ?x1137 ?x639 ?x796 (* (- 2) (* s00 s r)) (* 36 (* r00 x00 r)) (* (- 54) (* r00 x)) ?x137 ?x1078 (* 54 (* x00 r)) ?x1118 (* (- 24) (* s00 r)) (* 24 (* r00 s)) (* (- 36) (* r00 r00 x)))))
 (let ((?x461 (* (- 3) s)))
 (let ((?x44 (* 3 s00)))
 (let ((?x1428 (* 4 ?x553)))
 (let ((?x1526 (* 18 ?x484)))
 (let ((?x889 (+ (* 9 (* s r)) ?x1526 (* (- 9) ?x1304) (* (- 2) (* s s)) (* (- 18) (* x r)) (* (- 6) (* r00 s r)) (* 6 ?x501) ?x1428 (* (- 18) (* r00 x)) ?x44 (* (- 6) ?x1468) (* 18 (* x00 r)) ?x461 (* (- 9) (* s00 r)) (* (- 2) (* s00 s)) (* 9 (* r00 s)) (* 6 (* r00 s00 r)))))
 (let ((?x432 (* 12 ?x431)))
 (let ((?x463 (* (- 6) x00)))
 (let ((?x56 (* 6 x)))
 (let ((?x462 (* (- 3) r00)))
 (let ((?x43 (* 3 r)))
 (let ((?x1499 (+ (* 2 (* s r)) (* (- 12) (* r00 r00 r)) ?x43 ?x44 ?x461 ?x462 (* 4 (* s00 r)) (* (- 6) ?x1304) ?x56 ?x463 ?x432)))
 (let ((?x261 (* r00 r00)))
 (let ((?x956 (* (- 3) ?x261)))
 (let (($x737 (= (+ s00 (* (- 1) s) (* 3 (* r r)) ?x956) 0)))
 (let (($x1564 (and $x737 (= ?x1499 0) (= ?x889 0) (= ?x780 0) $x1228 $x1157)))
 (let ((?x949 (* (- 9) s00)))
 (let ((?x878 (* (- 15) ?x553)))
 (let ((?x852 (* (- 36) ?x839)))
 (let ((?x768 (* 6 ?x767)))
 (let ((?x507 (* s s)))
 (let ((?x531 (* 3 ?x507)))
 (let ((?x513 (* (- 54) ?x484)))
 (let ((?x883 (+ (* (- 24) (* s r)) ?x513 (* 36 (* r00 x r)) (* 24 ?x1304) ?x531 (* 54 (* x r)) (* (- 6) (* s00 x)) (* 4 (* r00 s s)) (* (- 2) (* r00 s00 s00)) (* (- 6) (* x00 s)) (* 12 (* s00 s)) (* (- 2) (* r00 s00 s)) ?x768 (* 2 (* s s r)) (* 6 (* x s)) (* (- 4) (* s00 s00 r)) (* (- 36) ?x501) ?x852 ?x878 (* 2 (* s00 s r)) (* (- 36) (* r00 x00 r)) (* 54 (* r00 x)) ?x949 (* 36 ?x1468) (* (- 54) (* x00 r)) ?x143 (* 24 (* s00 r)) (* (- 24) (* r00 s)) (* 36 (* r00 r00 x)))))
 (let ((?x47 (* 3 s)))
 (let ((?x566 (* (- 4) ?x553)))
 (let ((?x508 (* 2 ?x507)))
 (let ((?x498 (* (- 18) ?x484)))
 (let ((?x1172 (+ (* (- 9) (* s r)) ?x498 (* 9 ?x1304) ?x508 (* 18 (* x r)) (* 6 (* r00 s r)) (* (- 6) ?x501) ?x566 (* 18 (* r00 x)) ?x340 (* 6 ?x1468) (* (- 18) (* x00 r)) ?x47 (* 9 (* s00 r)) (* 2 (* s00 s)) (* (- 9) (* r00 s)) (* (- 6) (* r00 s00 r)))))
 (let ((?x953 (* (- 3) r)))
 (let ((?x1349 (+ (* (- 2) (* s r)) (* 12 (* r00 r00 r)) ?x953 ?x340 ?x47 ?x48 (* (- 4) (* s00 r)) ?x1305 ?x410 ?x59 ?x445)))
 (let (($x622 (and $x737 (= ?x1349 0) (= ?x1172 0) (= ?x883 0) $x1228 $x1157)))
 (rewrite (= $x622 $x1564))))))))))))))))))))))))))))))))))))))))))))))))))))))))))))))))))))))))))
 ))
 (let (($x237 (exists ((r Int) (s Int) (x Int) )(! (let ((?x213 (* 6 r)))
 (let ((?x214 (+ s ?x213 3)))
 (let ((?x212 (+ r 1)))
 (let ((?x61 (* 12 r00 r00 r00)))
 (let ((?x59 (* 6 x00)))
 (let ((?x54 (* 6 r00 s00)))
 (let ((?x48 (* 3 r00)))
 (let ((?x44 (* 3 s00)))
 (let ((?x219 (- (+ (* (- 2) ?x212 ?x214) (* 12 ?x212 r00 r00)) (* 3 ?x212))))
 (let ((?x225 (+ (- (+ (- ?x219 ?x44) (* 3 ?x214) ?x48) (* 4 ?x212 s00)) ?x54)))
 (let ((?x232 (* (- (+ (- ?x225 (* 6 (- x s))) ?x59) ?x61) (- 1) ?x212 ?x212 ?x212 ?x214)))
 (let ((?x143 (* 9 s)))
 (let ((?x139 (* 36 r00 r00 s00)))
 (let ((?x137 (* 9 s00)))
 (let ((?x123 (* 36 r00 r00 s)))
 (let ((?x157 (- (+ (* 216 r00 s00 x00) (* 108 r00 x00)) (* 54 r00 s00))))
 (let ((?x164 (- (- (+ ?x157 (* 15 s s)) (* 216 r00 r00 r00 s)) (* 36 r00 r00 s00 s00))))
 (let ((?x171 (- (+ (- ?x164 (* 4 s s s)) (* 108 x x)) (* 432 r00 r00 r00 x00))))
 (let ((?x176 (- (+ (- ?x171 (* 12 s s s00)) (* 108 s00 x)) (* 108 r00 s00 s00))))
 (let ((?x180 (+ ?x176 (* 216 r00 r00 r00 s00) (* 108 s x00) (* 432 r00 r00 r00 x))))
 (let ((?x188 (- (+ (- ?x180 (* 66 s s00)) (* 108 r00 s s00)) (* 108 s00 x00))))
 (let ((?x193 (+ (- ?x188 (* 216 r00 s00 x)) (* 36 r00 r00 s s) (* 16 s00 s00 s00))))
 (let ((?x200 (- (+ (- ?x193 (* 108 s x)) ?x123 (* 51 s00 s00)) (* 108 r00 x))))
 (let ((?x207 (- (+ (- (- (+ ?x200 ?x137) ?x139) ?x143) (* 54 r00 s)) (* 216 x x00))))
 (let ((?x105 (+ (- (* (- 24) r s) (* 54 r00 x00)) (* 36 r r00 x) (* 24 r00 s00) (* 3 s s) (* 54 r x))))
 (let ((?x112 (- (+ (- ?x105 (* 6 s00 x)) (* 4 r00 s s)) (* 2 r00 s00 s00))))
 (let ((?x117 (- (+ (- ?x112 (* 6 s x00)) (* 12 s s00)) (* 2 r00 s s00))))
 (let ((?x121 (+ ?x117 (* 6 s00 x00) (* 2 r s s) (* 6 s x))))
 (let ((?x129 (- (- (- ?x121 (* 4 r s00 s00)) ?x123) (* 36 r00 r00 x00))))
 (let ((?x134 (- (+ (- ?x129 (* 15 s00 s00)) (* 2 r s s00)) (* 36 r r00 x00))))
 (let ((?x142 (- (+ (- (+ ?x134 (* 54 r00 x)) ?x137) ?x139) (* 54 r x00))))
 (let ((?x149 (+ (- (+ ?x142 ?x143 (* 24 r s00)) (* 24 r00 s)) (* 36 r00 r00 x))))
 (let ((?x47 (* 3 s)))
 (let ((?x74 (+ (- (* (- 9) r s) (* 18 r00 x00)) (* 9 r00 s00) (* 2 s s) (* 18 r x) (* 6 r r00 s))))
 (let ((?x80 (+ (- (- ?x74 (* 6 r00 r00 s)) (* 4 s00 s00)) (* 18 r00 x))))
 (let ((?x85 (- (+ (- ?x80 ?x44) (* 6 r00 r00 s00)) (* 18 r x00))))
 (let ((?x91 (- (+ ?x85 ?x47 (* 9 r s00) (* 2 s s00)) (* 9 r00 s))))
 (let ((?x56 (* 6 x)))
 (let ((?x43 (* 3 r)))
 (let ((?x46 (- (- (+ (* (- 2) r s) (* 12 r r00 r00)) ?x43) ?x44)))
 (let ((?x60 (+ (- (+ (- (+ ?x46 ?x47 ?x48) (* 4 r s00)) ?x54) ?x56) ?x59)))
 (let (($x36 (= (- (+ (- s00 s) (* 3 r r)) (* 3 r00 r00)) 0)))
 (and $x36 (= (- ?x60 ?x61) 0) (= (- ?x91 (* 6 r r00 s00)) 0) (= ?x149 0) (= (+ ?x207 (* 108 x00 x00)) 0) (or (not (= ?x232 0)))))))))))))))))))))))))))))))))))))))))))))) :qid k!35))
 ))
 (let ((?x1163 (lambda ((r Int) (s Int) (x Int) )(let ((?x431 (* r00 r00 r00)))
 (let ((?x445 (* (- 12) ?x431)))
 (let ((?x59 (* 6 x00)))
 (let ((?x410 (* (- 6) x)))
 (let ((?x1304 (* r00 s00)))
 (let ((?x1305 (* 6 ?x1304)))
 (let ((?x48 (* 3 r00)))
 (let ((?x143 (* 9 s)))
 (let ((?x340 (* (- 3) s00)))
 (let ((?x1040 (+ 6 (* (- 2) (* (+ 1 r) (+ 3 s (* 6 r)))) (* 12 (* r00 r00 (+ 1 r))) (* 15 r) ?x340 ?x143 ?x48 (* (- 4) (* s00 (+ 1 r))) ?x1305 ?x410 ?x59 ?x445)))
 (let ((?x213 (* 6 r)))
 (let ((?x605 (+ 3 s ?x213)))
 (let ((?x1345 (+ 1 r)))
 (let (($x1157 (not (= (* ?x1345 ?x1345 ?x1345 ?x605 ?x1040) 0))))
 (let ((?x1308 (* x00 x00)))
 (let ((?x1205 (* 108 ?x1308)))
 (let ((?x1118 (* (- 9) s)))
 (let ((?x1468 (* r00 r00 s00)))
 (let ((?x1078 (* (- 36) ?x1468)))
 (let ((?x137 (* 9 s00)))
 (let ((?x553 (* s00 s00)))
 (let ((?x906 (* 51 ?x553)))
 (let ((?x501 (* r00 r00 s)))
 (let ((?x1137 (* 36 ?x501)))
 (let ((?x1146 (* s00 s00 s00)))
 (let ((?x733 (* 16 ?x1146)))
 (let ((?x767 (* s00 x00)))
 (let ((?x1365 (* (- 108) ?x767)))
 (let ((?x844 (* r00 r00 r00 x00)))
 (let ((?x534 (* (- 432) ?x844)))
 (let ((?x484 (* r00 x00)))
 (let ((?x342 (* 108 ?x484)))
 (let ((?x1223 (+ (* 216 (* r00 s00 x00)) ?x342 (* (- 54) ?x1304) (* 15 (* s s)) (* (- 216) (* r00 r00 r00 s)) (* (- 36) (* r00 r00 s00 s00)) (* (- 4) (* s s s)) (* 108 (* x x)) ?x534 (* (- 12) (* s00 s s)) (* 108 (* s00 x)) (* (- 108) (* r00 s00 s00)) (* 216 (* r00 r00 r00 s00)) (* 108 (* x00 s)) (* 432 (* r00 r00 r00 x)) (* (- 66) (* s00 s)) (* 108 (* r00 s00 s)) ?x1365 (* (- 216) (* r00 s00 x)) (* 36 (* r00 r00 s s)) ?x733 (* (- 108) (* x s)) ?x1137 ?x906 (* (- 108) (* r00 x)) ?x137 ?x1078 ?x1118 (* 54 (* r00 s)) (* (- 216) (* x00 x)) ?x1205)))
 (let (($x1228 (= ?x1223 0)))
 (let ((?x949 (* (- 9) s00)))
 (let ((?x878 (* (- 15) ?x553)))
 (let ((?x839 (* r00 r00 x00)))
 (let ((?x852 (* (- 36) ?x839)))
 (let ((?x768 (* 6 ?x767)))
 (let ((?x507 (* s s)))
 (let ((?x531 (* 3 ?x507)))
 (let ((?x513 (* (- 54) ?x484)))
 (let ((?x883 (+ (* (- 24) (* s r)) ?x513 (* 36 (* r00 x r)) (* 24 ?x1304) ?x531 (* 54 (* x r)) (* (- 6) (* s00 x)) (* 4 (* r00 s s)) (* (- 2) (* r00 s00 s00)) (* (- 6) (* x00 s)) (* 12 (* s00 s)) (* (- 2) (* r00 s00 s)) ?x768 (* 2 (* s s r)) (* 6 (* x s)) (* (- 4) (* s00 s00 r)) (* (- 36) ?x501) ?x852 ?x878 (* 2 (* s00 s r)) (* (- 36) (* r00 x00 r)) (* 54 (* r00 x)) ?x949 (* 36 ?x1468) (* (- 54) (* x00 r)) ?x143 (* 24 (* s00 r)) (* (- 24) (* r00 s)) (* 36 (* r00 r00 x)))))
 (let ((?x47 (* 3 s)))
 (let ((?x566 (* (- 4) ?x553)))
 (let ((?x508 (* 2 ?x507)))
 (let ((?x498 (* (- 18) ?x484)))
 (let ((?x1172 (+ (* (- 9) (* s r)) ?x498 (* 9 ?x1304) ?x508 (* 18 (* x r)) (* 6 (* r00 s r)) (* (- 6) ?x501) ?x566 (* 18 (* r00 x)) ?x340 (* 6 ?x1468) (* (- 18) (* x00 r)) ?x47 (* 9 (* s00 r)) (* 2 (* s00 s)) (* (- 9) (* r00 s)) (* (- 6) (* r00 s00 r)))))
 (let ((?x953 (* (- 3) r)))
 (let ((?x1349 (+ (* (- 2) (* s r)) (* 12 (* r00 r00 r)) ?x953 ?x340 ?x47 ?x48 (* (- 4) (* s00 r)) ?x1305 ?x410 ?x59 ?x445)))
 (let ((?x261 (* r00 r00)))
 (let ((?x956 (* (- 3) ?x261)))
 (let (($x737 (= (+ s00 (* (- 1) s) (* 3 (* r r)) ?x956) 0)))
 (let (($x622 (and $x737 (= ?x1349 0) (= ?x1172 0) (= ?x883 0) $x1228 $x1157)))
 (let ((?x214 (+ s ?x213 3)))
 (let ((?x212 (+ r 1)))
 (let ((?x61 (* 12 r00 r00 r00)))
 (let ((?x54 (* 6 r00 s00)))
 (let ((?x44 (* 3 s00)))
 (let ((?x219 (- (+ (* (- 2) ?x212 ?x214) (* 12 ?x212 r00 r00)) (* 3 ?x212))))
 (let ((?x225 (+ (- (+ (- ?x219 ?x44) (* 3 ?x214) ?x48) (* 4 ?x212 s00)) ?x54)))
 (let ((?x232 (* (- (+ (- ?x225 (* 6 (- x s))) ?x59) ?x61) (- 1) ?x212 ?x212 ?x212 ?x214)))
 (let ((?x139 (* 36 r00 r00 s00)))
 (let ((?x123 (* 36 r00 r00 s)))
 (let ((?x157 (- (+ (* 216 r00 s00 x00) (* 108 r00 x00)) (* 54 r00 s00))))
 (let ((?x164 (- (- (+ ?x157 (* 15 s s)) (* 216 r00 r00 r00 s)) (* 36 r00 r00 s00 s00))))
 (let ((?x171 (- (+ (- ?x164 (* 4 s s s)) (* 108 x x)) (* 432 r00 r00 r00 x00))))
 (let ((?x176 (- (+ (- ?x171 (* 12 s s s00)) (* 108 s00 x)) (* 108 r00 s00 s00))))
 (let ((?x180 (+ ?x176 (* 216 r00 r00 r00 s00) (* 108 s x00) (* 432 r00 r00 r00 x))))
 (let ((?x188 (- (+ (- ?x180 (* 66 s s00)) (* 108 r00 s s00)) (* 108 s00 x00))))
 (let ((?x193 (+ (- ?x188 (* 216 r00 s00 x)) (* 36 r00 r00 s s) (* 16 s00 s00 s00))))
 (let ((?x200 (- (+ (- ?x193 (* 108 s x)) ?x123 (* 51 s00 s00)) (* 108 r00 x))))
 (let ((?x207 (- (+ (- (- (+ ?x200 ?x137) ?x139) ?x143) (* 54 r00 s)) (* 216 x x00))))
 (let ((?x105 (+ (- (* (- 24) r s) (* 54 r00 x00)) (* 36 r r00 x) (* 24 r00 s00) (* 3 s s) (* 54 r x))))
 (let ((?x112 (- (+ (- ?x105 (* 6 s00 x)) (* 4 r00 s s)) (* 2 r00 s00 s00))))
 (let ((?x117 (- (+ (- ?x112 (* 6 s x00)) (* 12 s s00)) (* 2 r00 s s00))))
 (let ((?x121 (+ ?x117 (* 6 s00 x00) (* 2 r s s) (* 6 s x))))
 (let ((?x129 (- (- (- ?x121 (* 4 r s00 s00)) ?x123) (* 36 r00 r00 x00))))
 (let ((?x134 (- (+ (- ?x129 (* 15 s00 s00)) (* 2 r s s00)) (* 36 r r00 x00))))
 (let ((?x142 (- (+ (- (+ ?x134 (* 54 r00 x)) ?x137) ?x139) (* 54 r x00))))
 (let ((?x149 (+ (- (+ ?x142 ?x143 (* 24 r s00)) (* 24 r00 s)) (* 36 r00 r00 x))))
 (let ((?x74 (+ (- (* (- 9) r s) (* 18 r00 x00)) (* 9 r00 s00) (* 2 s s) (* 18 r x) (* 6 r r00 s))))
 (let ((?x80 (+ (- (- ?x74 (* 6 r00 r00 s)) (* 4 s00 s00)) (* 18 r00 x))))
 (let ((?x85 (- (+ (- ?x80 ?x44) (* 6 r00 r00 s00)) (* 18 r x00))))
 (let ((?x91 (- (+ ?x85 ?x47 (* 9 r s00) (* 2 s s00)) (* 9 r00 s))))
 (let ((?x56 (* 6 x)))
 (let ((?x43 (* 3 r)))
 (let ((?x46 (- (- (+ (* (- 2) r s) (* 12 r r00 r00)) ?x43) ?x44)))
 (let ((?x60 (+ (- (+ (- (+ ?x46 ?x47 ?x48) (* 4 r s00)) ?x54) ?x56) ?x59)))
 (let (($x36 (= (- (+ (- s00 s) (* 3 r r)) (* 3 r00 r00)) 0)))
 (let (($x236 (and $x36 (= (- ?x60 ?x61) 0) (= (- ?x91 (* 6 r r00 s00)) 0) (= ?x149 0) (= (+ ?x207 (* 108 x00 x00)) 0) (or (not (= ?x232 0))))))
 (rewrite (= $x236 $x622))))))))))))))))))))))))))))))))))))))))))))))))))))))))))))))))))))))))))))))))))))))))))))))
 ))
 (let ((@x238 (asserted $x237)))
 (let ((@x721 (mp (mp @x238 (quant-intro (proof-bind ?x1163) (= $x237 $x1159)) $x1159) (rewrite (= $x1159 $x1159)) $x1159)))
 (let ((@x477 (mp (mp @x721 (quant-intro (proof-bind ?x1435) (= $x1159 $x1030)) $x1030) (quant-intro (proof-bind ?x696) (= $x1030 $x1358)) $x1358)))
 (let ((@x661 (mp (mp~ @x477 (sk (~ $x1358 $x1588)) $x1588) (rewrite (= $x1588 $x986)) $x986)))
 (let ((@x1197 (and-elim @x661 $x643)))
 (let ((@x1427 (unit-resolution ((_ th-lemma arith triangle-eq) (or (not $x643) $x1375)) @x1197 $x1375)))
 (let (($x555 (>= ?x1271 0)))
 (let ((@x958 (and-elim @x661 $x1143)))
 (let ((@x303 (unit-resolution ((_ th-lemma arith triangle-eq) (or (not $x1143) $x555)) @x958 $x555)))
 (let (($x304 (<= ?x301 0)))
 (let ((@x385 (unit-resolution ((_ th-lemma arith triangle-eq) (or (not $x643) $x304)) @x1197 $x304)))
 (let (($x1492 (<= ?x1271 0)))
 (let ((@x1061 (unit-resolution ((_ th-lemma arith triangle-eq) (or (not $x1143) $x1492)) @x958 $x1492)))
 (let (($x815 (not (<= ?x762 0))))
 (let (($x240 (>= ?x762 0)))
 (let ((@x455 (lemma ((_ th-lemma arith farkas 1 1 1 1 1) (hypothesis (not $x240)) @x1061 @x385 @x303 @x1427 false) $x240)))
 (let ((@x1043 (unit-resolution ((_ th-lemma arith triangle-eq) (or $x973 $x815 (not $x240))) (and-elim @x661 $x802) (or $x815 (not $x240)))))
 ((_ th-lemma arith farkas 1 1 1 1 1) (unit-resolution @x1043 @x455 $x815) @x1061 @x385 @x303 @x1427 false)))))))))))))))))))))))))))))))))))))))))))))))))))))))))))))))))))))))))))))))))))))))))))))))))))))))))))))))))))))))))))))))

(:added-eqs                 5
 :arith-assert-diseq        1
 :arith-assert-lower        27
 :arith-assert-upper        10
 :arith-conflicts           2
 :arith-eq-adapter          6
 :arith-fixed-eqs           2
 :arith-max-min             226
 :arith-nonlinear-bounds    16
 :arith-num-rows            8
 :arith-pivots              5
 :arith-pseudo-nonlinear    2
 :arith-row-summations      11
 :arith-tableau-max-columns 96
 :arith-tableau-max-rows    8
 :conflicts                 2
 :decisions                 1
 :del-clause                19
 :final-checks              2
 :max-memory                3.93
 :memory                    3.32
 :mk-bool-var               24
 :mk-clause                 19
 :num-allocs                1326865
 :num-checks                1
 :propagations              12
 :rlimit-count              8592
 :time                      0.01
 :total-time                0.02)
